# 23688
param n := 25;
param s := 1;
set E :=  (0,8) (0,14) (1,23) (1,24) (2,3) (2,8) (2,9) (2,12) (2,13) (2,17) (2,20) (4,5) (4,11) (4,19) (5,16) (5,19) (5,23) (6,13) (6,15) (6,20) (6,23) (7,9) (7,13) (8,17) (10,21) (10,24) (13,14) (13,22) (14,16) (15,17) (15,24) (16,23) (18,22) (18,24) (19,21) (21,22);
